%chk=ccspe.chk
# force uhf/6-31+g

Title Card Required

0 2
 Br                -2.49999994   -0.93283581    0.00000000
 H                 -3.93999994   -0.93283581    0.00000000
 F                 -6.53414780   -0.93283581    0.00000000

 1 2 1.0
 2
 3

